CEE-5410_A-5_Network.gms.log

--- Job CEE-5410_A-5_Network_eff.gms Start 10/14/25 16:10:44 51.1.0 2d039df5 WEX-WEI x86 64bit/MS Windows
--- Applying:
    C:\GAMS\51\gmsprmNT.txt
--- GAMS Parameters defined
    Input "C:\Users\grill\OneDrive - USU\2025_FALL\CEE-5410_WaterResourcesSystemAnalysis\GitHubRepository\CEE-5410_Hilton\CEE-5410_A-5_Network_eff.gms"
    PageSize 0
    ScrDir "C:\Users\grill\OneDrive - USU\2025_FALL\CEE-5410_WaterResourcesSystemAnalysis\GitHubRepository\CEE-5410_Hilton\225a\"
    SysDir C:\GAMS\51\
    LogOption 3
    AppendLog 1
    ErrMsg 1
    ErrorLog 99
    IDE 1
    LstTitleLeftAligned 1
Licensee: Course License                                 G250902+0003Ac-GEN
          Utah State University                                     DCE4709
          225a\gamslice.dat
          node:22668303 mem:16 cores:4 ipport:49876 uses:0@0 v:2           
          Course license for use within the course and related course work
          The expiration date of time-limited license is Dec 31, 2025
System information: 4 physical cores and 16 Gb physical memory detected
GAMS 51.1.0   Copyright (C) 1987-2025 GAMS Development. All rights reserved
--- Starting compilation
--- CEE-5410_A-5_Network_eff.gms(110) 3 Mb
--- Starting execution: elapsed 0:00:00.025
--- Generating LP model OPTIMALNETWORK
--- CEE-5410_A-5_Network_eff.gms(107) 4 Mb
---   8 rows  11 columns  31 non-zeroes
--- Range statistics (absolute non-zero finite values)
--- RHS       [min, max] : [ 4.000E+01, 7.500E+01] - Zero values observed as well
--- Bound     [min, max] : [        NA,        NA] - Zero values observed as well
--- Matrix    [min, max] : [ 1.000E+00, 8.000E+00]
--- Executing CPLEX (Solvelink=2): elapsed 0:00:00.031

IBM ILOG CPLEX   51.1.0 2d039df5 Sep 13, 2025          WEI x86 64bit/MS Window

*** This solver runs with a community license.
--- GMO setup time: 0.00s
--- GMO memory 0.50 Mb (peak 0.50 Mb)
--- Dictionary memory 0.00 Mb
--- Cplex 22.1.2.0 link memory 0.00 Mb (peak 0.00 Mb)
--- Starting Cplex

Version identifier: 22.1.2.0 | 2024-11-25 | 0edbb82fd
CPXPARAM_Advance                                 0
CPXPARAM_Simplex_Display                         2
CPXPARAM_MIP_Display                             4
CPXPARAM_MIP_Pool_Capacity                       0
CPXPARAM_MIP_Tolerances_AbsMIPGap                0
Tried aggregator 1 time.
LP Presolve eliminated 0 rows and 1 columns.
Reduced LP has 7 rows, 10 columns, and 20 nonzeros.
Presolve time = 0.00 sec. (0.01 ticks)

Iteration      Dual Objective            In Variable           Out Variable
     1             240.000000                 X(xWH)     FLOW_BAL(dH) slack
     2             290.000000                 X(xTZ)     FLOW_BAL(dZ) slack
     3             350.000000                 X(xTH)     FLOW_BAL(bW) slack
     4             680.000000                 X(xSW)     FLOW_BAL(bT) slack
     5            1000.000000                 X(xWR)     FLOW_BAL(dR) slack
     6            1100.000000                 X(xAT)                 X(xTH)
     7            1150.000000                 X(xTH)     FLOW_BAL(mS) slack

--- LP status (1): optimal.
--- Cplex Time: 0.02sec (det. 0.02 ticks)


Optimal solution found
Objective:         1150.000000

--- Reading solution for model OPTIMALNETWORK
--- Executing after solve: elapsed 0:00:00.124
--- CEE-5410_A-5_Network_eff.gms(109) 4 Mb
*** Status: Normal completion
--- Job CEE-5410_A-5_Network_eff.gms Stop 10/14/25 16:10:44 elapsed 0:00:00.126
